
Gurobi 6.0.4 (win64) logging started 06/18/15 20:05:46

Read LP format model from file E:\Eigene Dateien\Downloads\Michi shit\VRPTWMS2\instances\mip\fuel\N8-C_DV100-C_SV25_F5_2_No_1.lp
Reading time = 0.01 seconds
(null): 417 rows, 208 columns, 1715 nonzeros
Optimize a model with 417 rows, 208 columns and 1715 nonzeros
Model has 576 quadratic constraints
Coefficient statistics:
  Matrix range    [1e+00, 1e+06]
  Objective range [8e+04, 1e+07]
  Bounds range    [1e+00, 1e+06]
  RHS range       [1e+00, 1e+06]
Presolve removed 36 rows and 19 columns
Presolve time: 0.03s
Presolved: 1391 rows, 719 columns, 6782 nonzeros
Variable types: 480 continuous, 239 integer (196 binary)
Found heuristic solution: objective 8.317200e+07

Root relaxation: objective 2.676755e+06, 144 iterations, 0.00 seconds

    Nodes    |    Current Node    |     Objective Bounds      |     Work
 Expl Unexpl |  Obj  Depth IntInf | Incumbent    BestBd   Gap | It/Node Time

     0     0 2676754.77    0   28 8.3172e+07 2676754.77  96.8%     -    0s
H    0     0                    5.250540e+07 2676754.77  94.9%     -    0s
     0     0 1.1296e+07    0   34 5.2505e+07 1.1296e+07  78.5%     -    0s
H    0     0                    3.235150e+07 1.1296e+07  65.1%     -    0s
     0     0 1.1418e+07    0   31 3.2352e+07 1.1418e+07  64.7%     -    0s
     0     0 1.1454e+07    0   19 3.2352e+07 1.1454e+07  64.6%     -    0s
     0     0 1.1466e+07    0   31 3.2352e+07 1.1466e+07  64.6%     -    0s
     0     0 1.1466e+07    0   31 3.2352e+07 1.1466e+07  64.6%     -    0s
     0     0 1.1466e+07    0   31 3.2352e+07 1.1466e+07  64.6%     -    0s
     0     0 1.1466e+07    0   31 3.2352e+07 1.1466e+07  64.6%     -    0s
     0     2 1.1466e+07    0   30 3.2352e+07 1.1466e+07  64.6%     -    0s
*  199   132              15    3.178400e+07 1.1653e+07  63.3%  18.3    0s
H  221   143                    3.171280e+07 1.1653e+07  63.3%  19.2    0s
H  240   163                    3.169740e+07 1.1653e+07  63.2%  19.2    0s
  4554   751 1.3420e+07   21   38 3.1697e+07 1.3420e+07  57.7%  43.5    5s
H 8049   703                    3.160280e+07 1.7272e+07  45.3%  48.3    7s
 11074  1014 infeasible   25      3.1603e+07 2.1919e+07  30.6%  49.2   10s
 17761   732 2.2544e+07   32   18 3.1603e+07 2.2497e+07  28.8%  54.4   15s

Cutting planes:
  Gomory: 6
  Cover: 1
  Implied bound: 2
  Clique: 3
  MIR: 2
  Flow cover: 2
  GUB cover: 1
  Zero half: 13

Explored 20430 nodes (1139137 simplex iterations) in 17.06 seconds
Thread count was 4 (of 4 available processors)

Optimal solution found (tolerance 1.00e-04)
Best objective 3.160280000000e+07, best bound 3.160280000000e+07, gap 0.0%
k_c1	980000.0
k_c2	1000000.0
k_c3	1000000.0
k_c4	960000.0
k_c5	880000.0
k_c6	910000.0
k_c7	950000.0
k_c8	870000.0
k_dN	-0.0
o_1	0.0
o_2	0.0
o_3	0.0
o_4	0.0
o_5	0.0
o_6	0.0
o_7	0.0
o_8	0.0
p_1	0.0
p_2	0.0
p_3	0.0
p_4	0.0
p_5	0.0
p_6	0.0
p_7	0.0
p_8	0.0
phi_c1	30613.0
phi_c2	41303.0
phi_c3	39076.0
phi_c4	24726.0
phi_c5	14410.0
phi_c6	12430.0
phi_c7	20578.0
phi_c8	7205.0
phi_dN	-0.0
pi_c1	0.0
pi_c2	0.0
pi_c3	0.0
pi_c4	0.0
pi_c5	0.0
pi_c6	0.0
pi_c7	0.0
pi_c8	0.0
pi_dN	-0.0
tauD_c1	351625.0
tauD_c2	100000.0
tauD_c3	300000.0
tauD_c4	294050.0
tauD_c5	846450.0
tauD_c6	450000.0
tauD_c7	700000.0
tauD_c8	600000.0
tauD_d0	-0.0
tauD_dN	1000000.0
tauS_c1	0.0
tauS_c2	815525.0
tauS_c3	0.0
tauS_c4	814875.0
tauS_c5	0.0
tauS_c6	803125.0
tauS_c7	0.0
tauS_c8	822375.0
tauS_d0	-0.0
tauS_dN	1000000.0
x_c1_c7	1.0
x_c2_dN	1.0
x_c3_c1	1.0
x_c4_c6	1.0
x_c5_dN	1.0
x_c6_c8	1.0
x_c7_c5	1.0
x_c8_dN	1.0
x_d0_c2	1.0
x_d0_c3	1.0
x_d0_c4	1.0
